K8 In12 Cu4 Se24
1.0
   5.8345599999999997    5.8325969999999998    0.0000000000000000
  -5.8345599999999997    5.8325969999999998    0.0000000000000000
   0.0000000000000000    2.8917630000000001   21.5294489999999996
K In Cu Se
8 12 4 24
direct
   0.7624770000000000    0.3947859999999990    0.4167659999999990 K
   0.6052139999999990    0.2375229999999990    0.0832340000000000 K
   0.2375229999999990    0.6052139999999990    0.5832339999999990 K
   0.3947859999999990    0.7624770000000000    0.9167660000000000 K
   0.7800200000000000    0.8960929999999990    0.4168730000000000 K
   0.1039070000000000    0.2199800000000000    0.0831269999999990 K
   0.2199800000000000    0.1039070000000000    0.5831270000000000 K
   0.8960929999999990    0.7800200000000000    0.9168729999999990 K
   0.2791600000000000    0.1540320000000000    0.3850050000000000 In
   0.8459679999999991    0.7208400000000000    0.1149950000000000 In
   0.7208400000000000    0.8459679999999991    0.6149950000000000 In
   0.1540320000000000    0.2791600000000000    0.8850049999999990 In
   0.3462010000000000    0.7216750000000000    0.1152280000000000 In
   0.2783250000000000    0.6537990000000000    0.3847720000000000 In
   0.6537990000000000    0.2783250000000000    0.8847720000000000 In
   0.7216750000000000    0.3462010000000000    0.6152280000000000 In
   0.5611410000000000    0.4388590000000000    0.2500000000000000 In
   0.4388590000000000    0.5611410000000000    0.7500000000000000 In
   0.0634850000000000    0.9365150000000000    0.2500000000000000 In
   0.9365150000000000    0.0634850000000000    0.7500000000000000 In
   0.0631630000000000    0.4382160000000000    0.2499569999999990 Cu
   0.5617840000000000    0.9368369999999990    0.2500430000000000 Cu
   0.9368369999999990    0.5617840000000000    0.7500430000000000 Cu
   0.4382160000000000    0.0631630000000000    0.7499570000000000 Cu
   0.1826680000000000    0.0269790000000000    0.8196859999999990 Se
   0.9730209999999990    0.8173319999999999    0.6803140000000000 Se
   0.8173319999999999    0.9730209999999990    0.1803140000000000 Se
   0.0269790000000000    0.1826680000000000    0.3196859999999990 Se
   0.1578240000000000    0.5636789999999990    0.8196869999999991 Se
   0.4363209999999990    0.8421759999999990    0.6803129999999999 Se
   0.8421759999999990    0.4363209999999990    0.1803130000000000 Se
   0.5636789999999990    0.1578240000000000    0.3196870000000000 Se
   0.9739120000000000    0.3430510000000000    0.6807259999999991 Se
   0.6569490000000000    0.0260880000000000    0.8192739999999999 Se
   0.0260880000000000    0.6569490000000000    0.3192740000000000 Se
   0.3430510000000000    0.9739120000000000    0.1807260000000000 Se
   0.8849809999999990    0.2659870000000000    0.9597950000000000 Se
   0.7340129999999990    0.1150190000000000    0.5402049999999990 Se
   0.1150190000000000    0.7340129999999990    0.0402050000000000 Se
   0.2659870000000000    0.8849809999999990    0.4597949999999990 Se
   0.4364630000000000    0.3163070000000000    0.6805709999999990 Se
   0.6836930000000000    0.5635370000000000    0.8194290000000000 Se
   0.5635370000000000    0.6836930000000000    0.3194289999999990 Se
   0.3163070000000000    0.4364630000000000    0.1805709999999990 Se
   0.3855100000000000    0.2535650000000000    0.9599690000000000 Se
   0.7464350000000000    0.6144900000000001    0.5400309999999990 Se
   0.6144900000000001    0.7464350000000000    0.0400310000000000 Se
   0.2535650000000000    0.3855100000000000    0.4599689999999990 Se
