In4 Ga2 Cu6 Se12
1.0
   2.9068100000000001   -2.8981439999999998    5.7880810000000000
  -2.9068100000000001    2.8981439999999998    5.7880810000000000
 -11.6342149999999993   -5.8032329999999996    0.0000000000000000
In Ga Cu Se
4 2 6 12
direct
   0.7502620000000000    0.7502620000000000    0.5000000000000000 In
   0.8337580000000000    0.1667800000000000    0.6683540000000000 In
   0.4999289999999990    0.4999289999999990    0.0000000000000000 In
   0.1667800000000000    0.8337580000000000    0.3316460000000000 In
   0.4168369999999990    0.0834780000000000    0.8332579999999991 Ga
   0.0834780000000000    0.4168369999999990    0.1667420000000000 Ga
   0.2513579999999990    0.2513579999999990    0.5000000000000000 Cu
   0.9164120000000000    0.5820810000000000    0.8349519999999990 Cu
   0.5820810000000000    0.9164120000000000    0.1650480000000000 Cu
   0.3350740000000000    0.6649220000000000    0.6679879999999990 Cu
   0.9999520000000000    0.9999520000000000    0.0000000000000000 Cu
   0.6649220000000000    0.3350740000000000    0.3320120000000000 Cu
   0.1035850000000000    0.6358400000000001    0.9991669999999990 Se
   0.7698870000000000    0.9796809999999990    0.3217760000000000 Se
   0.4363070000000000    0.3028720000000000    0.6646639999999990 Se
   0.6358400000000001    0.1035850000000000    0.0008330000000000 Se
   0.3028720000000000    0.4363070000000000    0.3353359999999990 Se
   0.9796809999999990    0.7698870000000000    0.6782239999999990 Se
   0.0503430000000000    0.2114589999999990    0.8442750000000000 Se
   0.7161000000000001    0.5455170000000000    0.1765110000000000 Se
   0.3642000000000000    0.8833660000000000    0.5106020000000000 Se
   0.8833660000000000    0.3642000000000000    0.4893980000000000 Se
   0.5455170000000000    0.7161000000000001    0.8234889999999990 Se
   0.2114589999999990    0.0503430000000000    0.1557250000000000 Se
